64077 19464
60875 47008
21939 50343
41488 11474
43005 30985
9432 58130
56370 34995
43121 54611
45974 53157
42898 22467
13515 7960
38734 57415
48029 33265
55332 23665
21053 12002
43717 17916
28692 28199
61204 4838
9077 45577
64802 57637
53696 29296
42453 42902
10953 64071
22980 18983
38893 7651
35883 57897
56230 27528
49737 23679
55574 48104
23280 1535
3393 44640
54597 47264
46697 65103
129 51768
57038 35577
37162 26520
54686 29857
2865 12401
50994 36799
12281 61713
44403 23326
53198 10329
19956 14474
24570 65371
10836 41984
27131 49544
53635 51530
17482 22521
59103 38866
15508 58331
9854 6641
44911 9929
33972 15557
62205 41601
26017 6251
41155 46744
28896 3292
56155 9188
31638 62558
11505 31977
40500 56400
15065 22431
56491 4440
48217 48369
50901 1414
19801 10025
46070 15124
24055 57117
29341 39008
40045 56029
55113 51538
20084 54850
29769 38799
22911 31880
18702 39193
46098 63887
846 4295
40478 36288
36117 24173
1187 1472
1291 55633
36657 11440
43787 22384
